objective value:                                   89
C0301                               0.999999999999999 	(obj:3)
C0303                               0.999999999999999 	(obj:1)
C0304                               0.999999999999999 	(obj:0)
C0305                               0.999999999999999 	(obj:1)
C0306                               0.999999999999999 	(obj:2)
C0314                               0.999999999999999 	(obj:1)
C0315                               0.999999999999999 	(obj:2)
C0324                                               1 	(obj:2)
C1607                                               1 	(obj:1)
C1617                                               1 	(obj:0)
C1618                                               1 	(obj:1)
C1627                                               1 	(obj:1)
C2102                                               1 	(obj:2)
C2111                                               1 	(obj:2)
C2112                               0.999999999999999 	(obj:1)
C2121                                               1 	(obj:1)
C2122                               0.999999999999999 	(obj:0)
C2123                                               1 	(obj:1)
C2132                                               1 	(obj:1)
C2133                                               1 	(obj:2)
C2142                                               1 	(obj:2)
C2516                                               1 	(obj:1)
C2525                                               1 	(obj:1)
C2526                                               1 	(obj:0)
C2537                                               1 	(obj:2)
C2819                               0.999999999999998 	(obj:1)
C2820                               0.999999999999998 	(obj:2)
C2828                               0.999999999999998 	(obj:1)
C2829                               0.999999999999998 	(obj:0)
C2830                               0.999999999999998 	(obj:1)
C2839                                               1 	(obj:1)
C4334                                               1 	(obj:1)
C4343                                               1 	(obj:1)
C4344                                               1 	(obj:0)
C4354                                               1 	(obj:1)
C4364                                               1 	(obj:2)
C4838                                               1 	(obj:2)
C4840                                               1 	(obj:2)
C4848                                               1 	(obj:1)
C4849                                               1 	(obj:0)
C4850                                               1 	(obj:1)
C4859                                               1 	(obj:1)
C4860                                               1 	(obj:2)
C5141                               0.999999999999995 	(obj:2)
C5151                                               1 	(obj:1)
C5152                                               1 	(obj:0)
C5153                                               1 	(obj:1)
C5162                                               1 	(obj:1)
C5172                                               1 	(obj:2)
C6758                                               1 	(obj:1)
C6767                                               1 	(obj:1)
C6768                                               1 	(obj:0)
C6769                                               1 	(obj:1)
C6770                                               1 	(obj:2)
C6777                                               1 	(obj:2)
C6778                                               1 	(obj:1)
C7273                                               1 	(obj:0)
C7274                                               1 	(obj:1)
C8475                               0.999999999999999 	(obj:1)
C8484                               0.999999999999998 	(obj:1)
C8485                               0.999999999999999 	(obj:0)
C8486                               0.999999999999999 	(obj:1)
C8495                               0.999999999999998 	(obj:1)
C8496                               0.999999999999999 	(obj:2)
C8879                                               1 	(obj:1)
C8880                                               1 	(obj:2)
C8887                                               1 	(obj:2)
C8888                                               1 	(obj:1)
C8889                                               1 	(obj:0)
C8890                                               1 	(obj:1)
C8898                                               1 	(obj:2)
C8899                                               1 	(obj:1)
C8900                                               1 	(obj:2)
C9282                                               1 	(obj:2)
C9283                                               1 	(obj:1)
C9293                                               1 	(obj:0)
C9294                                               1 	(obj:1)
C10093                                              1 	(obj:0)
C10089                                              1 	(obj:0)
C10085                              0.999999999999999 	(obj:0)
C10073                                              1 	(obj:0)
C10068                                              1 	(obj:0)
C10052                                              1 	(obj:0)
C10049                                              1 	(obj:0)
C10044                                              1 	(obj:0)
C10029                              0.999999999999998 	(obj:0)
C10026                                              1 	(obj:0)
C10022                                              1 	(obj:0)
C10017                                              1 	(obj:0)
C10004                              0.999999999999999 	(obj:0)
